proyfinal/src/viki/013/andrea/andrea-localstore/experimentInOfficeAgust.take6/worker_2/56df4d56-a14c-410a-a66a-2ff14b246ec8.als.cnf.out
Reading from standard input... Use '--help' for help.
============================[ Problem Statistics ]=============================
|                                                                             |
|  Number of variables:         87638                                         |
|  Number of clauses:          161767                                         |
|  Parse time:                   0.04 s                                       |
|                                                                             |
============================[ Search Statistics ]==============================
| Conflicts |          ORIGINAL         |          LEARNT          | Progress |
|           |    Vars  Clauses Literals |    Limit  Clauses Lit/Cl |          |
===============================================================================
|       100 |   63970   110791   276899 |    40623      100     11 | 27.007 % |
|       250 |   63970   110791   276899 |    44685      250     31 | 27.007 % |
|       475 |   63970   110791   276899 |    49154      475     45 | 27.007 % |
|       812 |   63970   110791   276899 |    54069      812     64 | 27.007 % |
|      1318 |   63970   110791   276899 |    59476     1318     97 | 27.007 % |
|      2077 |   63970   110791   276899 |    65424     2077    103 | 27.007 % |
|      3216 |   53056    78569   197420 |    71966     3164     86 | 39.460 % |
|      4924 |   52762    77312   194335 |    79163     4831     76 | 39.796 % |
|      7486 |   52576    76838   193247 |    87079     7203     68 | 40.008 % |
|     11330 |   51682    73348   184619 |    95787    10795     65 | 41.028 % |
|     17096 |   51491    72590   182819 |   105366    16395     62 | 41.246 % |
===============================================================================
restarts              : 73
conflicts             : 20766          (7291 /sec)
decisions             : 66532          (0.00 % random) (23360 /sec)
propagations          : 29285708       (10282329 /sec)
conflict literals     : 1253667        (47.19 % deleted)
Memory used           : 34.66 MB
CPU time              : 2.84816 s

UNSATISFIABLE
